db/data/40372372093872271727508132182903914212.z3.out
-------------------
2500.150350684
